
Gurobi 13.0.2 (win64) logging started Thu Jul 23 07:40:39 2026

Set parameter LogFile to value "E:\codes\ExactEBRP\results\gf_cplex_equivalent_gurobi_replica_round28\runs\stage2__tight_T_seed6102__c3_replica__300s\external\native_logs\R.0.1.1.0.0.1.0.1.0.0_terminal_mip.gurobi.log"
Gurobi Optimizer version 13.0.2 build v13.0.2rc1 (win64 - Windows 10.0 (19045.2))

CPU model: 12th Gen Intel(R) Core(TM) i7-12700KF, instruction set [SSE2|AVX|AVX2]
Thread count: 12 physical cores, 20 logical processors, using up to 1 threads

Non-default parameters:
TimeLimit  1.6541723700000006e+01
MIPGap  0
MIPGapAbs  0
LogToConsole  0
Threads  1

Optimize a model with 93019 rows, 18189 columns and 665846 nonzeros (Min)
Model fingerprint: 0x9897ae4e
Model has 51 linear objective coefficients
Variable types: 9459 continuous, 8730 integer (8230 binary)
Coefficient statistics:
  Matrix range     [8e-03, 2e+04]
  Objective range  [8e-03, 1e+00]
  Bounds range     [2e-01, 2e+03]
  RHS range        [4e-02, 5e+04]

Presolve removed 8016 rows and 191 columns
Presolve time: 2.21s
Presolved: 85003 rows, 17998 columns, 638945 nonzeros
Variable types: 9336 continuous, 8662 integer (8186 binary)
Root relaxation presolved: 17875 rows, 102688 columns, 656443 nonzeros


Root simplex log...

Iteration    Objective       Primal Inf.    Dual Inf.      Time
    8086    6.6285156e+31   7.100830e+33   6.628516e+01      5s
   11741    5.5575664e-01   0.000000e+00   0.000000e+00      7s
   11741    5.5575664e-01   0.000000e+00   0.000000e+00      7s
   11743    5.5575664e-01   0.000000e+00   0.000000e+00      7s

Extra simplex iterations from dual to original model: 2

Root relaxation: objective 5.557566e-01, 11743 iterations, 4.23 seconds (12.86 work units)

    Nodes    |    Current Node    |     Objective Bounds      |     Work
 Expl Unexpl |  Obj  Depth IntInf | Incumbent    BestBd   Gap | It/Node Time

     0     0    0.55576    0  359          -    0.55576      -     -    7s
     0     0          -    0               -    0.55576      -     -   16s

Explored 1 nodes (28636 simplex iterations) in 16.55 seconds (46.70 work units)
Thread count was 1 (of 20 available processors)

Solution count 0

Time limit reached
Best objective -, best bound 5.557566436399e-01, gap -

User-callback calls 1411, time in user-callback 0.00 sec
